NAME 
OBJSENSE MAX
ROWS
 N  OBJ
 L  packing[0]
 L  packing[1]
 L  packing[2]
 L  packing[3]
 L  packing[4]
 L  packing[5]
 L  packing[6]
 L  packing[7]
 L  packing[8]
 L  packing[9]
 L  packing[10]
 L  packing[11]
 L  packing[12]
 L  packing[13]
 L  packing[14]
 L  packing[15]
 L  packing[16]
 L  packing[17]
 L  packing[18]
 L  packing[19]
 L  packing[20]
 L  packing[21]
 L  packing[22]
 L  packing[23]
 L  packing[24]
 L  packing[25]
 L  packing[26]
 L  packing[27]
 L  packing[28]
 L  packing[29]
 L  packing[30]
 L  packing[31]
 L  packing[32]
 L  packing[33]
 L  packing[34]
 L  packing[35]
 L  packing[36]
 L  packing[37]
 L  packing[38]
 L  packing[39]
 L  packing[40]
 L  packing[41]
 L  packing[42]
 L  packing[43]
 L  packing[44]
 L  packing[45]
 L  packing[46]
 L  packing[47]
 L  packing[48]
 L  packing[49]
 L  R52     
COLUMNS
    MARKER    'MARKER'                 'INTORG'
    x[1]      OBJ       199
    x[1]      packing[2]  176
    x[1]      packing[3]  135
    x[1]      packing[4]  86
    x[1]      packing[7]  135
    x[1]      packing[8]  101
    x[1]      packing[9]  69
    x[1]      packing[10]  61
    x[1]      packing[11]  180
    x[1]      packing[12]  18
    x[1]      packing[13]  67
    x[1]      packing[14]  142
    x[1]      packing[15]  13
    x[1]      packing[16]  78
    x[1]      packing[17]  4
    x[1]      packing[19]  53
    x[1]      packing[20]  129
    x[1]      packing[21]  119
    x[1]      packing[23]  163
    x[1]      packing[24]  57
    x[1]      packing[27]  123
    x[1]      packing[28]  30
    x[1]      packing[30]  4
    x[1]      packing[31]  92
    x[1]      packing[32]  57
    x[1]      packing[33]  90
    x[1]      packing[34]  105
    x[1]      packing[37]  130
    x[1]      packing[38]  55
    x[1]      packing[39]  135
    x[1]      packing[40]  67
    x[1]      packing[42]  10
    x[1]      packing[43]  158
    x[1]      packing[44]  172
    x[1]      packing[45]  137
    x[1]      packing[48]  143
    x[2]      OBJ       24
    x[2]      packing[0]  66
    x[2]      packing[1]  51
    x[2]      packing[2]  187
    x[2]      packing[4]  98
    x[2]      packing[5]  106
    x[2]      packing[7]  98
    x[2]      packing[8]  115
    x[2]      packing[9]  175
    x[2]      packing[10]  186
    x[2]      packing[11]  145
    x[2]      packing[13]  194
    x[2]      packing[14]  93
    x[2]      packing[15]  101
    x[2]      packing[17]  188
    x[2]      packing[18]  187
    x[2]      packing[19]  23
    x[2]      packing[20]  54
    x[2]      packing[21]  104
    x[2]      packing[22]  56
    x[2]      packing[23]  96
    x[2]      packing[25]  32
    x[2]      packing[27]  86
    x[2]      packing[29]  81
    x[2]      packing[32]  103
    x[2]      packing[33]  161
    x[2]      packing[34]  147
    x[2]      packing[37]  70
    x[2]      packing[39]  44
    x[2]      packing[42]  35
    x[2]      packing[44]  170
    x[2]      packing[46]  49
    x[2]      packing[49]  1
    x[3]      OBJ       47
    x[3]      packing[1]  131
    x[3]      packing[2]  97
    x[3]      packing[3]  67
    x[3]      packing[4]  62
    x[3]      packing[5]  156
    x[3]      packing[6]  157
    x[3]      packing[7]  127
    x[3]      packing[8]  178
    x[3]      packing[10]  25
    x[3]      packing[11]  165
    x[3]      packing[13]  8
    x[3]      packing[14]  8
    x[3]      packing[15]  70
    x[3]      packing[16]  89
    x[3]      packing[17]  14
    x[3]      packing[18]  187
    x[3]      packing[19]  37
    x[3]      packing[20]  96
    x[3]      packing[21]  129
    x[3]      packing[22]  107
    x[3]      packing[23]  197
    x[3]      packing[26]  134
    x[3]      packing[29]  122
    x[3]      packing[30]  111
    x[3]      packing[33]  71
    x[3]      packing[34]  175
    x[3]      packing[35]  44
    x[3]      packing[36]  135
    x[3]      packing[38]  125
    x[3]      packing[39]  132
    x[3]      packing[40]  187
    x[3]      packing[41]  26
    x[3]      packing[43]  71
    x[3]      packing[44]  38
    x[3]      packing[45]  41
    x[3]      packing[48]  108
    x[3]      packing[49]  152
    x[4]      OBJ       62
    x[4]      packing[0]  149
    x[4]      packing[1]  144
    x[4]      packing[2]  189
    x[4]      packing[3]  47
    x[4]      packing[4]  32
    x[4]      packing[5]  191
    x[4]      packing[6]  87
    x[4]      packing[7]  142
    x[4]      packing[8]  46
    x[4]      packing[9]  136
    x[4]      packing[10]  146
    x[4]      packing[11]  116
    x[4]      packing[12]  28
    x[4]      packing[14]  144
    x[4]      packing[16]  36
    x[4]      packing[17]  79
    x[4]      packing[19]  56
    x[4]      packing[20]  140
    x[4]      packing[21]  134
    x[4]      packing[22]  55
    x[4]      packing[23]  48
    x[4]      packing[24]  160
    x[4]      packing[26]  104
    x[4]      packing[27]  131
    x[4]      packing[29]  61
    x[4]      packing[30]  43
    x[4]      packing[32]  27
    x[4]      packing[34]  55
    x[4]      packing[35]  183
    x[4]      packing[36]  33
    x[4]      packing[38]  111
    x[4]      packing[39]  18
    x[4]      packing[42]  2
    x[4]      packing[43]  110
    x[4]      packing[44]  168
    x[4]      packing[47]  53
    x[4]      packing[49]  130
    x[5]      OBJ       140
    x[5]      packing[0]  70
    x[5]      packing[2]  37
    x[5]      packing[3]  184
    x[5]      packing[4]  62
    x[5]      packing[5]  51
    x[5]      packing[6]  184
    x[5]      packing[7]  117
    x[5]      packing[8]  116
    x[5]      packing[9]  20
    x[5]      packing[10]  28
    x[5]      packing[11]  133
    x[5]      packing[12]  110
    x[5]      packing[13]  74
    x[5]      packing[14]  67
    x[5]      packing[17]  117
    x[5]      packing[18]  178
    x[5]      packing[19]  28
    x[5]      packing[21]  174
    x[5]      packing[22]  44
    x[5]      packing[23]  178
    x[5]      packing[25]  79
    x[5]      packing[26]  109
    x[5]      packing[27]  147
    x[5]      packing[28]  149
    x[5]      packing[30]  166
    x[5]      packing[31]  69
    x[5]      packing[32]  140
    x[5]      packing[36]  74
    x[5]      packing[37]  87
    x[5]      packing[38]  66
    x[5]      packing[39]  68
    x[5]      packing[40]  39
    x[5]      packing[41]  70
    x[5]      packing[42]  22
    x[5]      packing[43]  15
    x[5]      packing[45]  170
    x[5]      packing[46]  118
    x[5]      packing[47]  89
    x[5]      packing[48]  161
    x[6]      OBJ       167
    x[6]      packing[0]  173
    x[6]      packing[1]  152
    x[6]      packing[2]  5
    x[6]      packing[3]  179
    x[6]      packing[6]  185
    x[6]      packing[8]  72
    x[6]      packing[9]  75
    x[6]      packing[11]  52
    x[6]      packing[12]  145
    x[6]      packing[14]  177
    x[6]      packing[15]  155
    x[6]      packing[16]  26
    x[6]      packing[17]  10
    x[6]      packing[20]  160
    x[6]      packing[22]  174
    x[6]      packing[23]  150
    x[6]      packing[25]  105
    x[6]      packing[26]  77
    x[6]      packing[28]  188
    x[6]      packing[29]  157
    x[6]      packing[30]  73
    x[6]      packing[31]  83
    x[6]      packing[32]  34
    x[6]      packing[34]  105
    x[6]      packing[35]  196
    x[6]      packing[36]  86
    x[6]      packing[38]  172
    x[6]      packing[39]  108
    x[6]      packing[40]  151
    x[6]      packing[41]  65
    x[6]      packing[42]  178
    x[6]      packing[43]  177
    x[6]      packing[47]  168
    x[6]      packing[48]  2
    x[6]      R52       1
    x[7]      OBJ       84
    x[7]      packing[0]  175
    x[7]      packing[1]  19
    x[7]      packing[2]  171
    x[7]      packing[3]  142
    x[7]      packing[5]  40
    x[7]      packing[6]  12
    x[7]      packing[7]  185
    x[7]      packing[8]  100
    x[7]      packing[9]  51
    x[7]      packing[11]  123
    x[7]      packing[12]  81
    x[7]      packing[13]  62
    x[7]      packing[14]  21
    x[7]      packing[15]  99
    x[7]      packing[17]  94
    x[7]      packing[19]  35
    x[7]      packing[20]  122
    x[7]      packing[21]  168
    x[7]      packing[22]  188
    x[7]      packing[23]  112
    x[7]      packing[24]  13
    x[7]      packing[25]  111
    x[7]      packing[27]  175
    x[7]      packing[28]  148
    x[7]      packing[29]  168
    x[7]      packing[30]  150
    x[7]      packing[33]  20
    x[7]      packing[34]  181
    x[7]      packing[35]  57
    x[7]      packing[36]  48
    x[7]      packing[37]  171
    x[7]      packing[38]  32
    x[7]      packing[39]  172
    x[7]      packing[42]  182
    x[7]      packing[43]  92
    x[7]      packing[44]  107
    x[7]      packing[45]  120
    x[7]      packing[46]  40
    x[7]      packing[47]  95
    x[7]      packing[49]  76
    x[8]      OBJ       171
    x[8]      packing[0]  179
    x[8]      packing[1]  23
    x[8]      packing[3]  87
    x[8]      packing[4]  26
    x[8]      packing[6]  17
    x[8]      packing[11]  72
    x[8]      packing[12]  111
    x[8]      packing[13]  180
    x[8]      packing[14]  130
    x[8]      packing[15]  43
    x[8]      packing[17]  40
    x[8]      packing[18]  82
    x[8]      packing[19]  136
    x[8]      packing[20]  103
    x[8]      packing[21]  131
    x[8]      packing[22]  65
    x[8]      packing[23]  56
    x[8]      packing[25]  45
    x[8]      packing[26]  196
    x[8]      packing[28]  54
    x[8]      packing[29]  10
    x[8]      packing[30]  141
    x[8]      packing[31]  6
    x[8]      packing[32]  148
    x[8]      packing[33]  84
    x[8]      packing[34]  94
    x[8]      packing[35]  24
    x[8]      packing[38]  63
    x[8]      packing[40]  5
    x[8]      packing[43]  18
    x[8]      packing[44]  105
    x[8]      packing[45]  81
    x[8]      packing[46]  17
    x[8]      packing[48]  194
    x[8]      packing[49]  113
    x[8]      R52       1
    x[9]      OBJ       126
    x[9]      packing[0]  61
    x[9]      packing[1]  69
    x[9]      packing[2]  67
    x[9]      packing[3]  5
    x[9]      packing[4]  125
    x[9]      packing[5]  145
    x[9]      packing[6]  171
    x[9]      packing[7]  15
    x[9]      packing[11]  60
    x[9]      packing[12]  130
    x[9]      packing[13]  157
    x[9]      packing[14]  66
    x[9]      packing[15]  190
    x[9]      packing[16]  93
    x[9]      packing[17]  149
    x[9]      packing[20]  134
    x[9]      packing[22]  103
    x[9]      packing[23]  14
    x[9]      packing[24]  46
    x[9]      packing[25]  160
    x[9]      packing[26]  61
    x[9]      packing[27]  68
    x[9]      packing[31]  140
    x[9]      packing[32]  136
    x[9]      packing[33]  9
    x[9]      packing[34]  189
    x[9]      packing[35]  141
    x[9]      packing[36]  135
    x[9]      packing[37]  96
    x[9]      packing[38]  81
    x[9]      packing[39]  119
    x[9]      packing[40]  83
    x[9]      packing[42]  95
    x[9]      packing[43]  3
    x[9]      packing[44]  87
    x[9]      packing[45]  82
    x[9]      packing[46]  195
    x[9]      packing[48]  44
    x[9]      packing[49]  46
    x[9]      R52       1
    x[10]     OBJ       3
    x[10]     packing[0]  138
    x[10]     packing[1]  112
    x[10]     packing[2]  21
    x[10]     packing[3]  121
    x[10]     packing[4]  139
    x[10]     packing[6]  72
    x[10]     packing[7]  72
    x[10]     packing[8]  104
    x[10]     packing[10]  154
    x[10]     packing[11]  41
    x[10]     packing[12]  41
    x[10]     packing[13]  154
    x[10]     packing[14]  161
    x[10]     packing[16]  171
    x[10]     packing[18]  34
    x[10]     packing[21]  18
    x[10]     packing[22]  47
    x[10]     packing[23]  68
    x[10]     packing[25]  143
    x[10]     packing[26]  125
    x[10]     packing[27]  56
    x[10]     packing[28]  39
    x[10]     packing[29]  16
    x[10]     packing[30]  7
    x[10]     packing[31]  48
    x[10]     packing[33]  161
    x[10]     packing[34]  177
    x[10]     packing[36]  115
    x[10]     packing[39]  111
    x[10]     packing[40]  58
    x[10]     packing[41]  15
    x[10]     packing[42]  154
    x[10]     packing[43]  176
    x[10]     packing[45]  155
    x[10]     packing[46]  82
    x[10]     packing[47]  37
    x[10]     packing[48]  147
    x[11]     OBJ       169
    x[11]     packing[0]  34
    x[11]     packing[1]  23
    x[11]     packing[3]  98
    x[11]     packing[4]  151
    x[11]     packing[5]  12
    x[11]     packing[7]  43
    x[11]     packing[9]  58
    x[11]     packing[10]  197
    x[11]     packing[12]  78
    x[11]     packing[14]  17
    x[11]     packing[17]  63
    x[11]     packing[18]  29
    x[11]     packing[20]  27
    x[11]     packing[21]  140
    x[11]     packing[22]  106
    x[11]     packing[24]  134
    x[11]     packing[25]  25
    x[11]     packing[27]  49
    x[11]     packing[29]  25
    x[11]     packing[30]  74
    x[11]     packing[31]  28
    x[11]     packing[32]  186
    x[11]     packing[33]  135
    x[11]     packing[34]  96
    x[11]     packing[35]  141
    x[11]     packing[37]  84
    x[11]     packing[38]  147
    x[11]     packing[39]  69
    x[11]     packing[40]  36
    x[11]     packing[41]  41
    x[11]     packing[42]  102
    x[11]     packing[45]  126
    x[11]     packing[47]  173
    x[11]     R52       1
    x[12]     OBJ       108
    x[12]     packing[0]  112
    x[12]     packing[1]  197
    x[12]     packing[3]  199
    x[12]     packing[4]  170
    x[12]     packing[7]  120
    x[12]     packing[8]  44
    x[12]     packing[9]  117
    x[12]     packing[11]  194
    x[12]     packing[12]  94
    x[12]     packing[13]  139
    x[12]     packing[14]  134
    x[12]     packing[16]  88
    x[12]     packing[17]  166
    x[12]     packing[18]  141
    x[12]     packing[19]  150
    x[12]     packing[20]  74
    x[12]     packing[21]  154
    x[12]     packing[22]  46
    x[12]     packing[23]  125
    x[12]     packing[24]  61
    x[12]     packing[25]  46
    x[12]     packing[26]  166
    x[12]     packing[28]  89
    x[12]     packing[29]  22
    x[12]     packing[30]  69
    x[12]     packing[31]  5
    x[12]     packing[32]  87
    x[12]     packing[34]  1
    x[12]     packing[36]  120
    x[12]     packing[37]  134
    x[12]     packing[40]  39
    x[12]     packing[41]  117
    x[12]     packing[42]  38
    x[12]     packing[43]  33
    x[12]     packing[45]  88
    x[12]     packing[46]  193
    x[12]     packing[47]  102
    x[13]     OBJ       47
    x[13]     packing[0]  81
    x[13]     packing[1]  199
    x[13]     packing[2]  159
    x[13]     packing[4]  29
    x[13]     packing[5]  114
    x[13]     packing[6]  148
    x[13]     packing[7]  160
    x[13]     packing[10]  9
    x[13]     packing[11]  38
    x[13]     packing[13]  37
    x[13]     packing[14]  147
    x[13]     packing[16]  137
    x[13]     packing[17]  63
    x[13]     packing[18]  185
    x[13]     packing[21]  185
    x[13]     packing[22]  147
    x[13]     packing[23]  57
    x[13]     packing[24]  30
    x[13]     packing[25]  128
    x[13]     packing[27]  179
    x[13]     packing[28]  84
    x[13]     packing[30]  89
    x[13]     packing[31]  50
    x[13]     packing[32]  73
    x[13]     packing[33]  52
    x[13]     packing[34]  59
    x[13]     packing[36]  186
    x[13]     packing[37]  165
    x[13]     packing[38]  75
    x[13]     packing[40]  70
    x[13]     packing[41]  107
    x[13]     packing[42]  152
    x[13]     packing[44]  41
    x[13]     packing[45]  14
    x[13]     packing[46]  73
    x[13]     packing[48]  173
    x[13]     packing[49]  31
    x[14]     OBJ       131
    x[14]     packing[0]  165
    x[14]     packing[4]  59
    x[14]     packing[5]  166
    x[14]     packing[6]  125
    x[14]     packing[7]  10
    x[14]     packing[9]  91
    x[14]     packing[10]  17
    x[14]     packing[11]  83
    x[14]     packing[12]  91
    x[14]     packing[14]  12
    x[14]     packing[15]  119
    x[14]     packing[16]  49
    x[14]     packing[17]  175
    x[14]     packing[19]  107
    x[14]     packing[20]  124
    x[14]     packing[21]  25
    x[14]     packing[22]  99
    x[14]     packing[23]  148
    x[14]     packing[24]  98
    x[14]     packing[25]  89
    x[14]     packing[26]  115
    x[14]     packing[27]  71
    x[14]     packing[28]  31
    x[14]     packing[30]  175
    x[14]     packing[31]  140
    x[14]     packing[32]  61
    x[14]     packing[33]  160
    x[14]     packing[34]  106
    x[14]     packing[35]  152
    x[14]     packing[36]  136
    x[14]     packing[37]  45
    x[14]     packing[39]  170
    x[14]     packing[40]  2
    x[14]     packing[41]  109
    x[14]     packing[42]  68
    x[14]     packing[43]  94
    x[14]     packing[44]  133
    x[14]     packing[45]  126
    x[14]     packing[46]  165
    x[14]     packing[49]  21
    x[14]     R52       1
    x[15]     OBJ       84
    x[15]     packing[2]  66
    x[15]     packing[3]  155
    x[15]     packing[4]  69
    x[15]     packing[5]  172
    x[15]     packing[6]  39
    x[15]     packing[7]  165
    x[15]     packing[8]  143
    x[15]     packing[12]  198
    x[15]     packing[15]  57
    x[15]     packing[16]  157
    x[15]     packing[17]  95
    x[15]     packing[18]  136
    x[15]     packing[19]  96
    x[15]     packing[22]  13
    x[15]     packing[23]  17
    x[15]     packing[25]  189
    x[15]     packing[28]  57
    x[15]     packing[29]  58
    x[15]     packing[30]  199
    x[15]     packing[31]  85
    x[15]     packing[32]  27
    x[15]     packing[35]  94
    x[15]     packing[36]  44
    x[15]     packing[37]  134
    x[15]     packing[39]  153
    x[15]     packing[41]  160
    x[15]     packing[42]  114
    x[15]     packing[43]  169
    x[15]     packing[46]  134
    x[15]     packing[48]  171
    x[15]     packing[49]  187
    x[16]     OBJ       17
    x[16]     packing[0]  139
    x[16]     packing[1]  20
    x[16]     packing[2]  50
    x[16]     packing[3]  145
    x[16]     packing[4]  82
    x[16]     packing[5]  15
    x[16]     packing[7]  71
    x[16]     packing[9]  183
    x[16]     packing[10]  12
    x[16]     packing[12]  43
    x[16]     packing[13]  97
    x[16]     packing[15]  33
    x[16]     packing[16]  166
    x[16]     packing[17]  157
    x[16]     packing[19]  99
    x[16]     packing[21]  40
    x[16]     packing[24]  83
    x[16]     packing[25]  80
    x[16]     packing[26]  85
    x[16]     packing[28]  179
    x[16]     packing[29]  118
    x[16]     packing[30]  95
    x[16]     packing[31]  14
    x[16]     packing[32]  70
    x[16]     packing[36]  53
    x[16]     packing[37]  76
    x[16]     packing[42]  192
    x[16]     packing[44]  161
    x[16]     packing[45]  193
    x[16]     packing[47]  13
    x[16]     packing[49]  15
    x[17]     OBJ       4
    x[17]     packing[0]  12
    x[17]     packing[2]  104
    x[17]     packing[3]  31
    x[17]     packing[4]  84
    x[17]     packing[6]  102
    x[17]     packing[7]  97
    x[17]     packing[8]  54
    x[17]     packing[9]  94
    x[17]     packing[10]  18
    x[17]     packing[11]  156
    x[17]     packing[13]  12
    x[17]     packing[14]  157
    x[17]     packing[15]  67
    x[17]     packing[16]  84
    x[17]     packing[17]  7
    x[17]     packing[19]  185
    x[17]     packing[22]  74
    x[17]     packing[24]  145
    x[17]     packing[25]  47
    x[17]     packing[27]  116
    x[17]     packing[28]  113
    x[17]     packing[29]  8
    x[17]     packing[30]  81
    x[17]     packing[31]  168
    x[17]     packing[32]  43
    x[17]     packing[33]  107
    x[17]     packing[34]  158
    x[17]     packing[35]  38
    x[17]     packing[36]  80
    x[17]     packing[37]  27
    x[17]     packing[38]  92
    x[17]     packing[40]  178
    x[17]     packing[41]  62
    x[17]     packing[42]  186
    x[17]     packing[43]  61
    x[17]     packing[44]  25
    x[17]     packing[45]  86
    x[17]     packing[48]  2
    x[17]     packing[49]  133
    x[18]     OBJ       121
    x[18]     packing[0]  167
    x[18]     packing[1]  45
    x[18]     packing[2]  161
    x[18]     packing[3]  105
    x[18]     packing[4]  8
    x[18]     packing[7]  149
    x[18]     packing[8]  62
    x[18]     packing[10]  154
    x[18]     packing[11]  43
    x[18]     packing[12]  75
    x[18]     packing[13]  41
    x[18]     packing[14]  183
    x[18]     packing[15]  105
    x[18]     packing[16]  193
    x[18]     packing[17]  156
    x[18]     packing[18]  152
    x[18]     packing[19]  74
    x[18]     packing[20]  166
    x[18]     packing[21]  175
    x[18]     packing[22]  65
    x[18]     packing[23]  150
    x[18]     packing[24]  134
    x[18]     packing[25]  91
    x[18]     packing[26]  66
    x[18]     packing[27]  173
    x[18]     packing[28]  120
    x[18]     packing[30]  79
    x[18]     packing[31]  160
    x[18]     packing[32]  169
    x[18]     packing[34]  132
    x[18]     packing[35]  75
    x[18]     packing[39]  30
    x[18]     packing[40]  199
    x[18]     packing[41]  57
    x[18]     packing[42]  116
    x[18]     packing[43]  155
    x[18]     packing[45]  9
    x[18]     packing[46]  153
    x[18]     packing[47]  30
    x[18]     packing[48]  134
    x[18]     packing[49]  145
    x[19]     OBJ       11
    x[19]     packing[0]  62
    x[19]     packing[1]  80
    x[19]     packing[2]  114
    x[19]     packing[3]  193
    x[19]     packing[4]  68
    x[19]     packing[5]  75
    x[19]     packing[6]  188
    x[19]     packing[7]  193
    x[19]     packing[8]  73
    x[19]     packing[9]  65
    x[19]     packing[10]  19
    x[19]     packing[11]  61
    x[19]     packing[14]  196
    x[19]     packing[15]  96
    x[19]     packing[16]  23
    x[19]     packing[17]  25
    x[19]     packing[18]  67
    x[19]     packing[19]  52
    x[19]     packing[20]  188
    x[19]     packing[22]  181
    x[19]     packing[23]  146
    x[19]     packing[24]  91
    x[19]     packing[25]  191
    x[19]     packing[26]  54
    x[19]     packing[27]  139
    x[19]     packing[29]  56
    x[19]     packing[32]  175
    x[19]     packing[33]  85
    x[19]     packing[34]  4
    x[19]     packing[35]  11
    x[19]     packing[36]  166
    x[19]     packing[37]  181
    x[19]     packing[38]  21
    x[19]     packing[40]  21
    x[19]     packing[41]  89
    x[19]     packing[43]  54
    x[19]     packing[44]  66
    x[19]     packing[45]  66
    x[19]     packing[46]  57
    x[19]     packing[47]  155
    x[20]     OBJ       50
    x[20]     packing[0]  72
    x[20]     packing[1]  98
    x[20]     packing[3]  121
    x[20]     packing[4]  182
    x[20]     packing[5]  32
    x[20]     packing[6]  21
    x[20]     packing[7]  183
    x[20]     packing[8]  153
    x[20]     packing[9]  141
    x[20]     packing[10]  108
    x[20]     packing[11]  187
    x[20]     packing[15]  78
    x[20]     packing[16]  163
    x[20]     packing[17]  165
    x[20]     packing[18]  196
    x[20]     packing[19]  163
    x[20]     packing[20]  72
    x[20]     packing[22]  126
    x[20]     packing[23]  18
    x[20]     packing[24]  67
    x[20]     packing[25]  151
    x[20]     packing[26]  181
    x[20]     packing[27]  21
    x[20]     packing[28]  59
    x[20]     packing[30]  146
    x[20]     packing[32]  192
    x[20]     packing[33]  92
    x[20]     packing[35]  58
    x[20]     packing[36]  126
    x[20]     packing[37]  66
    x[20]     packing[38]  97
    x[20]     packing[41]  167
    x[20]     packing[42]  67
    x[20]     packing[43]  152
    x[20]     packing[44]  116
    x[20]     packing[45]  5
    x[20]     packing[48]  75
    MARKER    'MARKER'                 'INTEND'
RHS
    RHS1      packing[0]  928
    RHS1      packing[1]  682
    RHS1      packing[2]  802
    RHS1      packing[3]  1007
    RHS1      packing[4]  766
    RHS1      packing[5]  638
    RHS1      packing[6]  754
    RHS1      packing[7]  1041
    RHS1      packing[8]  681
    RHS1      packing[9]  638
    RHS1      packing[10]  567
    RHS1      packing[11]  925
    RHS1      packing[12]  622
    RHS1      packing[13]  611
    RHS1      packing[14]  928
    RHS1      packing[15]  613
    RHS1      packing[16]  777
    RHS1      packing[17]  884
    RHS1      packing[18]  787
    RHS1      packing[19]  647
    RHS1      packing[20]  795
    RHS1      packing[21]  848
    RHS1      packing[22]  848
    RHS1      packing[23]  872
    RHS1      packing[24]  560
    RHS1      packing[25]  856
    RHS1      packing[26]  737
    RHS1      packing[27]  767
    RHS1      packing[28]  670
    RHS1      packing[29]  451
    RHS1      packing[30]  851
    RHS1      packing[31]  544
    RHS1      packing[32]  864
    RHS1      packing[33]  614
    RHS1      packing[34]  892
    RHS1      packing[35]  607
    RHS1      packing[36]  769
    RHS1      packing[37]  733
    RHS1      packing[38]  569
    RHS1      packing[39]  665
    RHS1      packing[40]  568
    RHS1      packing[41]  543
    RHS1      packing[42]  857
    RHS1      packing[43]  769
    RHS1      packing[44]  695
    RHS1      packing[45]  750
    RHS1      packing[46]  638
    RHS1      packing[47]  458
    RHS1      packing[48]  677
    RHS1      packing[49]  525
    RHS1      R52       4
BOUNDS
 BV BND1      x[1]    
 BV BND1      x[2]    
 BV BND1      x[3]    
 BV BND1      x[4]    
 BV BND1      x[5]    
 BV BND1      x[6]    
 BV BND1      x[7]    
 BV BND1      x[8]    
 BV BND1      x[9]    
 BV BND1      x[10]   
 BV BND1      x[11]   
 BV BND1      x[12]   
 BV BND1      x[13]   
 BV BND1      x[14]   
 BV BND1      x[15]   
 BV BND1      x[16]   
 BV BND1      x[17]   
 BV BND1      x[18]   
 BV BND1      x[19]   
 BV BND1      x[20]   
ENDATA
